c FILE: DSJC500.1
c
c SOURCE: David Johnson (dsj@research.att.com)
c
c DESCRIPTION: Random graph used in the paper
c              "Optimization by Simulated Annealing: An
c               Experimental Evaluation; Part II, Graph
c               Coloring and Number Partitioning" by
c              David S. Johnson, Cecilia R. Aragon, 
c              Lyle A. McGeoch and Catherine Schevon
c              Operations Research, 39, 378-406 (1991)
c
p edge 500 24916
e 6 2
e 8 3
e 8 4
e 8 7
e 9 4
e 10 2
e 10 5
e 11 7
e 12 3
e 12 10
e 13 2
e 13 5
e 14 7
e 15 5
e 15 14
e 16 6
e 16 11
e 17 1
e 17 9
e 20 2
e 20 9
e 20 13
e 22 8
e 24 11
e 25 21
e 26 3
e 26 9
e 26 13
e 26 25
e 27 25
e 28 13
e 28 14
e 29 23
e 30 1
e 30 4
e 30 5
e 30 11
e 30 13
e 30 20
e 31 1
e 31 3
e 31 7
e 31 18
e 31 20
e 31 27
e 31 28
e 32 4
e 32 22
e 32 29
e 33 13
e 33 17
e 33 18
e 33 23
e 33 29
e 34 10
e 34 26
e 34 27
e 35 11
e 35 13
e 35 22
e 35 28
e 36 2
e 36 12
e 37 1
e 37 3
e 37 12
e 37 18
e 37 22
e 38 9
e 38 12
e 38 14
e 38 20
e 38 25
e 38 33
e 39 1
e 39 21
e 39 27
e 39 31
e 39 32
e 40 8
e 40 14
e 40 18
e 40 24
e 41 5
e 41 9
e 41 19
e 41 25
e 41 35
e 42 9
e 42 25
e 42 27
e 42 40
e 43 21
e 43 22
e 43 27
e 43 28
e 43 37
e 44 10
e 45 10
e 45 18
e 45 20
e 45 24
e 45 35
e 46 1
e 46 3
e 46 14
e 46 43
e 47 4
e 47 6
e 47 11
e 47 20
e 47 30
e 47 32
e 47 35
e 48 2
e 48 3
e 48 6
e 48 14
e 48 16
e 49 22
e 50 3
e 50 5
e 50 10
e 50 13
e 50 31
e 50 35
e 50 38
e 50 46
e 51 6
e 51 32
e 52 1
e 52 9
e 52 13
e 52 28
e 52 50
e 53 21
e 53 28
e 53 33
e 54 9
e 54 11
e 54 13
e 54 16
e 54 18
e 54 24
e 54 27
e 54 29
e 54 36
e 54 42
e 54 48
e 55 7
e 55 12
e 55 23
e 55 24
e 55 28
e 55 49
e 56 4
e 56 5
e 56 16
e 56 21
e 56 30
e 56 31
e 56 32
e 56 38
e 56 44
e 56 46
e 57 12
e 57 14
e 57 18
e 57 20
e 57 28
e 57 42
e 57 47
e 57 48
e 57 51
e 58 11
e 58 14
e 58 19
e 58 34
e 58 36
e 58 52
e 59 17
e 59 18
e 59 21
e 59 24
e 59 32
e 59 48
e 59 49
e 59 51
e 59 55
e 60 3
e 60 20
e 60 53
e 61 25
e 61 27
e 61 32
e 61 48
e 61 55
e 61 56
e 62 5
e 62 9
e 62 21
e 62 26
e 62 31
e 62 54
e 63 12
e 63 23
e 63 26
e 63 41
e 63 47
e 64 2
e 64 33
e 64 44
e 64 63
e 65 5
e 65 33
e 65 38
e 65 47
e 65 51
e 66 37
e 66 42
e 66 51
e 66 63
e 66 64
e 67 7
e 67 10
e 67 17
e 67 52
e 67 64
e 68 10
e 68 11
e 68 19
e 68 28
e 68 44
e 68 48
e 68 50
e 68 65
e 69 2
e 69 13
e 69 49
e 69 56
e 69 58
e 69 60
e 70 7
e 70 30
e 70 39
e 70 49
e 70 56
e 70 63
e 71 4
e 71 7
e 71 14
e 71 28
e 71 29
e 71 34
e 71 38
e 71 45
e 71 51
e 71 67
e 72 2
e 72 7
e 72 13
e 72 24
e 72 31
e 72 55
e 72 59
e 72 70
e 73 4
e 73 8
e 73 23
e 73 37
e 73 65
e 73 68
e 73 69
e 74 15
e 74 25
e 74 45
e 74 56
e 74 60
e 74 64
e 75 32
e 75 37
e 75 43
e 75 58
e 75 67
e 75 68
e 75 69
e 75 73
e 76 24
e 76 31
e 76 32
e 76 37
e 76 39
e 76 42
e 76 59
e 77 17
e 77 39
e 77 41
e 77 43
e 78 33
e 78 34
e 78 46
e 78 68
e 79 9
e 79 11
e 79 37
e 79 40
e 79 48
e 79 52
e 79 63
e 79 69
e 80 2
e 80 8
e 80 11
e 80 14
e 80 19
e 80 45
e 80 51
e 80 55
e 80 63
e 80 66
e 80 75
e 81 8
e 81 10
e 81 18
e 81 22
e 81 49
e 81 57
e 81 61
e 81 68
e 81 78
e 82 2
e 82 22
e 82 33
e 82 71
e 82 75
e 83 14
e 83 30
e 83 47
e 83 56
e 83 63
e 83 67
e 83 72
e 84 7
e 84 21
e 84 32
e 84 33
e 84 36
e 84 37
e 84 46
e 84 48
e 84 67
e 84 70
e 84 73
e 84 79
e 85 9
e 85 16
e 85 28
e 85 35
e 85 41
e 85 59
e 85 83
e 86 4
e 86 8
e 86 10
e 86 11
e 86 35
e 86 42
e 86 43
e 86 55
e 86 56
e 86 57
e 86 71
e 86 74
e 86 78
e 87 11
e 87 14
e 87 19
e 87 23
e 87 24
e 87 31
e 87 36
e 87 38
e 87 39
e 87 46
e 87 48
e 87 61
e 87 78
e 88 11
e 88 23
e 88 32
e 88 47
e 88 50
e 88 62
e 88 69
e 88 75
e 89 2
e 89 8
e 89 11
e 89 28
e 89 32
e 89 40
e 89 51
e 89 53
e 89 70
e 89 75
e 89 79
e 89 87
e 90 8
e 90 17
e 90 26
e 90 31
e 90 37
e 90 38
e 90 40
e 90 41
e 90 44
e 90 52
e 90 53
e 90 59
e 90 79
e 90 80
e 91 28
e 91 37
e 91 49
e 91 71
e 91 73
e 91 74
e 92 13
e 92 15
e 92 45
e 92 58
e 92 62
e 92 65
e 92 76
e 92 78
e 92 80
e 93 10
e 93 14
e 93 15
e 93 40
e 93 44
e 93 47
e 93 57
e 93 61
e 93 81
e 94 2
e 94 22
e 94 51
e 94 56
e 94 61
e 94 70
e 94 71
e 95 14
e 95 26
e 95 37
e 95 59
e 95 62
e 95 82
e 95 89
e 95 90
e 96 24
e 96 27
e 96 39
e 96 57
e 96 76
e 96 77
e 96 87
e 96 95
e 97 3
e 97 14
e 97 31
e 97 44
e 97 64
e 97 80
e 97 91
e 98 4
e 98 5
e 98 24
e 98 40
e 98 53
e 98 54
e 98 60
e 98 66
e 98 91
e 98 96
e 99 27
e 99 45
e 99 68
e 99 75
e 99 82
e 99 85
e 100 5
e 100 16
e 100 23
e 100 32
e 100 48
e 100 55
e 100 69
e 100 73
e 100 74
e 100 75
e 100 77
e 100 79
e 100 83
e 101 2
e 101 4
e 101 33
e 101 34
e 101 43
e 101 47
e 101 54
e 101 62
e 101 63
e 101 81
e 102 6
e 102 8
e 102 17
e 102 55
e 102 69
e 102 74
e 102 80
e 102 89
e 103 1
e 103 8
e 103 22
e 103 63
e 103 101
e 104 36
e 104 49
e 104 56
e 104 62
e 104 72
e 104 84
e 104 89
e 105 10
e 105 16
e 105 43
e 105 55
e 105 56
e 105 60
e 105 64
e 105 68
e 105 80
e 105 81
e 105 86
e 105 96
e 106 12
e 106 23
e 106 30
e 106 36
e 106 46
e 106 47
e 106 64
e 106 66
e 106 81
e 107 3
e 107 22
e 107 52
e 107 56
e 107 62
e 107 75
e 107 83
e 107 87
e 108 7
e 108 29
e 108 33
e 108 40
e 108 70
e 108 72
e 108 82
e 108 83
e 108 94
e 108 102
e 108 103
e 109 11
e 109 21
e 109 25
e 109 42
e 109 43
e 109 49
e 109 50
e 109 55
e 109 57
e 109 67
e 109 70
e 109 77
e 109 83
e 109 104
e 110 8
e 110 11
e 110 18
e 110 20
e 110 23
e 110 25
e 110 27
e 110 51
e 110 53
e 110 57
e 110 60
e 110 62
e 110 69
e 110 100
e 110 101
e 110 109
e 111 5
e 111 26
e 111 38
e 111 46
e 111 51
e 111 55
e 111 76
e 111 82
e 111 89
e 111 94
e 111 107
e 112 1
e 112 18
e 112 24
e 112 38
e 112 45
e 112 63
e 112 69
e 112 79
e 112 89
e 112 98
e 113 6
e 113 29
e 113 41
e 113 47
e 113 48
e 113 61
e 113 63
e 113 75
e 113 78
e 113 83
e 113 89
e 113 95
e 114 4
e 114 30
e 114 32
e 114 35
e 114 41
e 114 46
e 114 60
e 114 62
e 114 90
e 114 99
e 114 103
e 115 7
e 115 24
e 115 32
e 115 52
e 115 56
e 115 84
e 115 106
e 116 3
e 116 7
e 116 39
e 116 41
e 116 42
e 116 51
e 116 53
e 116 54
e 116 60
e 116 80
e 116 101
e 117 32
e 117 34
e 117 35
e 117 42
e 117 58
e 117 80
e 117 82
e 117 86
e 117 87
e 117 112
e 118 17
e 118 33
e 118 45
e 118 58
e 118 75
e 118 89
e 118 95
e 118 96
e 118 103
e 119 10
e 119 21
e 119 38
e 119 65
e 119 76
e 119 79
e 119 80
e 119 86
e 119 96
e 119 117
e 120 3
e 120 11
e 120 28
e 120 29
e 120 37
e 120 44
e 120 49
e 120 69
e 120 75
e 120 81
e 120 118
e 121 1
e 121 2
e 121 4
e 121 9
e 121 19
e 121 55
e 121 56
e 121 58
e 121 60
e 121 61
e 121 64
e 121 73
e 121 76
e 121 98
e 121 99
e 121 101
e 122 29
e 122 62
e 122 77
e 122 78
e 122 81
e 122 88
e 122 89
e 122 95
e 122 103
e 122 106
e 122 113
e 122 118
e 123 47
e 123 48
e 123 52
e 123 68
e 123 74
e 123 78
e 123 86
e 123 87
e 123 88
e 123 95
e 123 117
e 124 19
e 124 25
e 124 33
e 124 63
e 124 65
e 124 74
e 125 13
e 125 22
e 125 57
e 125 58
e 125 63
e 125 69
e 125 78
e 125 80
e 125 82
e 125 97
e 125 112
e 125 119
e 126 3
e 126 34
e 126 60
e 126 65
e 126 66
e 126 72
e 126 78
e 126 81
e 126 100
e 126 123
e 127 5
e 127 23
e 127 30
e 127 39
e 127 45
e 127 46
e 127 47
e 127 56
e 127 68
e 127 81
e 127 85
e 127 91
e 127 103
e 127 104
e 127 106
e 127 115
e 127 125
e 128 1
e 128 9
e 128 11
e 128 12
e 128 15
e 128 17
e 128 32
e 128 43
e 128 86
e 128 87
e 128 101
e 128 119
e 128 121
e 129 2
e 129 8
e 129 33
e 129 36
e 129 38
e 129 51
e 129 52
e 129 56
e 129 60
e 129 64
e 129 67
e 129 80
e 129 122
e 130 31
e 130 51
e 130 59
e 130 61
e 130 69
e 130 72
e 130 73
e 130 76
e 130 94
e 130 96
e 130 108
e 130 111
e 130 113
e 130 114
e 131 1
e 131 16
e 131 18
e 131 32
e 131 35
e 131 66
e 131 67
e 131 77
e 131 82
e 131 97
e 131 113
e 131 116
e 132 16
e 132 38
e 132 42
e 132 44
e 132 48
e 132 57
e 132 68
e 132 74
e 132 84
e 132 87
e 132 96
e 132 104
e 132 114
e 133 1
e 133 12
e 133 39
e 133 52
e 133 71
e 133 81
e 133 98
e 133 105
e 133 120
e 133 128
e 134 11
e 134 30
e 134 31
e 134 42
e 134 53
e 134 70
e 134 89
e 134 92
e 134 97
e 134 111
e 134 113
e 135 23
e 135 25
e 135 31
e 135 35
e 135 38
e 135 46
e 135 51
e 135 55
e 135 56
e 135 64
e 135 70
e 135 78
e 135 79
e 135 86
e 135 88
e 135 91
e 135 97
e 135 108
e 135 109
e 135 118
e 135 120
e 135 123
e 135 124
e 135 132
e 136 1
e 136 3
e 136 16
e 136 20
e 136 28
e 136 32
e 136 60
e 136 64
e 136 65
e 136 71
e 136 73
e 136 84
e 136 89
e 136 90
e 136 92
e 136 93
e 136 94
e 136 104
e 136 111
e 136 118
e 136 119
e 136 130
e 137 4
e 137 5
e 137 9
e 137 13
e 137 15
e 137 28
e 137 42
e 137 53
e 137 63
e 137 74
e 137 75
e 137 77
e 137 90
e 137 98
e 137 99
e 137 129
e 137 132
e 137 133
e 138 20
e 138 24
e 138 30
e 138 33
e 138 44
e 138 50
e 138 52
e 138 53
e 138 56
e 138 63
e 138 64
e 138 70
e 138 73
e 138 80
e 138 103
e 138 112
e 138 123
e 139 3
e 139 8
e 139 32
e 139 39
e 139 63
e 139 64
e 139 95
e 139 109
e 139 116
e 140 31
e 140 32
e 140 42
e 140 48
e 140 52
e 140 61
e 140 62
e 140 66
e 140 68
e 140 78
e 140 81
e 140 82
e 140 86
e 140 87
e 140 94
e 140 96
e 140 102
e 140 103
e 140 109
e 140 122
e 140 129
e 140 135
e 141 2
e 141 21
e 141 33
e 141 35
e 141 42
e 141 45
e 141 59
e 141 61
e 141 65
e 141 85
e 141 89
e 141 92
e 141 96
e 141 109
e 141 117
e 142 5
e 142 6
e 142 23
e 142 77
e 142 80
e 142 95
e 142 101
e 142 105
e 142 114
e 142 117
e 142 121
e 142 134
e 142 135
e 142 137
e 142 141
e 143 32
e 143 36
e 143 41
e 143 43
e 143 49
e 143 52
e 143 64
e 143 72
e 143 77
e 143 78
e 143 82
e 143 94
e 143 97
e 143 110
e 143 127
e 143 131
e 143 136
e 144 10
e 144 50
e 144 57
e 144 88
e 144 94
e 144 96
e 144 121
e 144 142
e 145 6
e 145 16
e 145 23
e 145 50
e 145 65
e 145 75
e 145 98
e 145 112
e 145 126
e 146 5
e 146 11
e 146 24
e 146 28
e 146 32
e 146 67
e 146 73
e 146 96
e 146 97
e 146 99
e 146 134
e 146 144
e 147 4
e 147 9
e 147 23
e 147 37
e 147 77
e 147 78
e 147 95
e 147 104
e 147 109
e 147 130
e 148 11
e 148 17
e 148 26
e 148 32
e 148 47
e 148 64
e 148 68
e 148 76
e 148 84
e 148 124
e 149 16
e 149 17
e 149 34
e 149 35
e 149 42
e 149 75
e 149 91
e 149 98
e 149 110
e 149 118
e 150 1
e 150 19
e 150 21
e 150 39
e 150 55
e 150 61
e 150 71
e 150 80
e 150 88
e 150 93
e 150 111
e 150 114
e 150 118
e 150 145
e 151 31
e 151 36
e 151 38
e 151 42
e 151 44
e 151 60
e 151 61
e 151 71
e 151 89
e 151 105
e 151 115
e 151 120
e 151 122
e 151 131
e 151 135
e 151 144
e 151 146
e 152 13
e 152 16
e 152 32
e 152 41
e 152 78
e 152 81
e 152 83
e 152 104
e 152 118
e 152 120
e 152 135
e 152 139
e 153 12
e 153 14
e 153 37
e 153 39
e 153 58
e 153 61
e 153 63
e 153 65
e 153 82
e 153 108
e 153 127
e 153 132
e 153 138
e 153 144
e 154 6
e 154 38
e 154 39
e 154 41
e 154 46
e 154 79
e 154 81
e 154 89
e 154 114
e 154 141
e 155 10
e 155 12
e 155 16
e 155 27
e 155 32
e 155 40
e 155 50
e 155 60
e 155 75
e 155 79
e 155 85
e 155 98
e 155 103
e 155 108
e 155 111
e 155 113
e 155 129
e 155 133
e 155 148
e 156 14
e 156 26
e 156 29
e 156 40
e 156 51
e 156 52
e 156 55
e 156 64
e 156 69
e 156 76
e 156 92
e 156 94
e 156 102
e 156 107
e 156 144
e 156 147
e 157 11
e 157 17
e 157 29
e 157 38
e 157 41
e 157 45
e 157 76
e 157 87
e 157 88
e 157 90
e 157 93
e 157 96
e 157 104
e 157 111
e 157 120
e 157 123
e 157 131
e 157 134
e 157 142
e 157 145
e 157 147
e 157 153
e 158 18
e 158 33
e 158 45
e 158 59
e 158 60
e 158 80
e 158 115
e 158 128
e 158 133
e 159 15
e 159 27
e 159 37
e 159 56
e 159 64
e 159 66
e 159 73
e 159 103
e 159 106
e 159 107
e 159 136
e 160 11
e 160 16
e 160 46
e 160 54
e 160 62
e 160 68
e 160 81
e 160 88
e 160 98
e 160 103
e 160 108
e 160 112
e 160 121
e 160 123
e 160 137
e 160 142
e 160 150
e 160 153
e 161 16
e 161 19
e 161 29
e 161 35
e 161 61
e 161 62
e 161 64
e 161 71
e 161 76
e 161 87
e 161 89
e 161 118
e 161 120
e 161 123
e 161 125
e 161 132
e 161 133
e 161 150
e 161 155
e 162 6
e 162 11
e 162 16
e 162 27
e 162 52
e 162 57
e 162 68
e 162 71
e 162 82
e 162 87
e 162 90
e 162 98
e 163 4
e 163 12
e 163 16
e 163 18
e 163 42
e 163 71
e 163 83
e 163 86
e 163 102
e 163 120
e 163 127
e 163 131
e 163 132
e 163 137
e 164 15
e 164 18
e 164 46
e 164 61
e 164 65
e 164 91
e 164 97
e 164 105
e 164 116
e 164 125
e 164 134
e 164 142
e 164 155
e 164 157
e 164 158
e 165 5
e 165 13
e 165 24
e 165 26
e 165 29
e 165 48
e 165 50
e 165 79
e 165 88
e 165 93
e 165 102
e 165 109
e 165 120
e 165 130
e 166 2
e 166 5
e 166 17
e 166 18
e 166 58
e 166 61
e 166 69
e 166 70
e 166 72
e 166 81
e 166 101
e 166 121
e 166 127
e 166 133
e 166 134
e 166 147
e 166 156
e 166 158
e 166 159
e 167 10
e 167 21
e 167 27
e 167 75
e 167 135
e 167 147
e 167 148
e 168 2
e 168 13
e 168 40
e 168 42
e 168 61
e 168 63
e 168 76
e 168 100
e 168 128
e 168 134
e 168 137
e 168 138
e 168 144
e 168 149
e 168 165
e 169 2
e 169 21
e 169 25
e 169 27
e 169 40
e 169 54
e 169 62
e 169 65
e 169 73
e 169 82
e 169 92
e 169 102
e 169 116
e 169 135
e 169 137
e 169 166
e 170 2
e 170 14
e 170 17
e 170 24
e 170 25
e 170 27
e 170 32
e 170 35
e 170 39
e 170 42
e 170 50
e 170 58
e 170 79
e 170 88
e 170 89
e 170 91
e 170 95
e 170 106
e 170 122
e 170 125
e 170 148
e 170 149
e 170 168
e 171 5
e 171 8
e 171 16
e 171 19
e 171 30
e 171 32
e 171 40
e 171 65
e 171 70
e 171 72
e 171 90
e 171 94
e 171 106
e 171 115
e 171 116
e 171 117
e 171 122
e 171 123
e 171 124
e 171 132
e 171 134
e 171 138
e 171 151
e 171 161
e 172 3
e 172 7
e 172 22
e 172 23
e 172 29
e 172 37
e 172 44
e 172 45
e 172 51
e 172 74
e 172 77
e 172 92
e 172 96
e 172 102
e 172 120
e 172 127
e 172 149
e 172 150
e 172 156
e 172 159
e 172 162
e 173 8
e 173 40
e 173 42
e 173 62
e 173 75
e 173 82
e 173 87
e 173 97
e 173 100
e 173 118
e 173 141
e 173 150
e 173 160
e 173 162
e 173 167
e 174 21
e 174 22
e 174 34
e 174 42
e 174 44
e 174 66
e 174 70
e 174 97
e 174 111
e 174 126
e 174 128
